c File: instances/18_0.65_3.col
c
c Description: Random graph of size 18 vertices and P(0.65) of edges between any two vertices.
p col 18 153
e 1 2
e 1 3
e 1 4
e 1 5
e 1 7
e 1 8
e 1 9
e 1 10
e 1 11
e 1 13
e 1 14
e 1 16
e 1 18
e 2 4
e 2 5
e 2 6
e 2 10
e 2 11
e 2 12
e 2 13
e 2 14
e 2 15
e 2 16
e 2 17
e 2 18
e 3 6
e 3 9
e 3 10
e 3 11
e 3 12
e 3 13
e 3 15
e 4 6
e 4 7
e 4 9
e 4 11
e 4 12
e 4 13
e 4 14
e 4 15
e 4 17
e 5 6
e 5 7
e 5 8
e 5 11
e 5 12
e 5 14
e 5 15
e 5 16
e 5 17
e 6 10
e 6 11
e 6 12
e 6 13
e 6 14
e 6 15
e 6 17
e 7 8
e 7 9
e 7 10
e 7 13
e 7 14
e 7 17
e 8 9
e 8 14
e 8 15
e 9 10
e 9 12
e 9 14
e 9 15
e 9 17
e 9 18
e 10 11
e 10 13
e 10 14
e 10 16
e 10 18
e 11 13
e 11 15
e 11 16
e 11 18
e 12 14
e 12 15
e 12 16
e 12 17
e 12 18
e 13 14
e 13 15
e 13 17
e 14 15
e 14 16
e 15 16
e 16 17
e 17 18